<number of tasks>
70

<cycle time>
234

<task times>
1 17
2 66
3 54
4 52
5 6
6 88
7 21
8 128
9 68
10 70
11 85
12 21
13 134
14 135
15 94
16 90
17 50
18 143
19 19
20 54
21 50
22 40
23 73
24 12
25 152
26 42
27 45
28 74
29 26
30 11
31 31
32 50
33 102
34 46
35 35
36 40
37 2
38 1
39 3
40 13
41 16
42 25
43 21
44 43
45 30
46 83
47 89
48 56
49 59
50 43
51 11
52 26
53 44
54 121
55 38
56 68
57 22
58 7
59 16
60 32
61 25
62 27
63 156
64 28
65 15
66 26
67 18
68 72
69 23
70 27

<precedence relations>
1,2
1,41
1,69
1,70
2,3
3,4
3,68
4,6
4,7
5,6
5,24
5,30
6,8
7,8
8,12
9,10
10,11
11,12
12,13
12,14
13,23
14,23
15,16
16,17
16,18
17,19
18,19
19,20
19,22
19,57
20,21
21,23
22,23
23,25
23,31
23,33
24,25
25,26
25,27
25,28
25,29
26,35
27,35
28,35
29,35
30,31
31,32
32,35
33,34
34,35
35,36
35,44
35,48
35,51
35,53
35,56
35,60
35,61
35,62
36,37
37,38
38,39
39,40
40,42
41,42
42,43
43,50
44,45
45,46
46,47
47,50
48,49
49,50
51,52
52,54
53,54
54,55
57,58
58,59
59,60
61,65
62,63
63,64
64,65
64,66
64,67

<setup times forward>
1,9:20
1,10:7
1,11:5
1,15:20
1,16:8
1,17:11
1,18:5
1,19:11
1,20:1
1,21:18
1,22:1
1,57:14
1,58:14
1,59:14
1,69:7
1,70:8
2,9:20
2,10:7
2,11:5
2,15:20
2,16:8
2,17:11
2,18:5
2,19:11
2,20:1
2,21:18
2,22:1
2,57:14
2,58:14
2,59:14
2,69:7
2,70:8
3,9:20
3,10:7
3,11:5
3,15:20
3,16:8
3,17:11
3,18:5
3,19:11
3,20:1
3,21:18
3,22:1
3,57:14
3,58:14
3,59:14
3,68:20
3,69:7
3,70:8
4,6:8
4,7:8
4,9:20
4,10:7
4,11:5
4,15:20
4,16:8
4,17:11
4,18:5
4,19:11
4,20:1
4,21:18
4,22:1
4,57:14
4,58:14
4,59:14
4,68:20
4,69:7
4,70:8
5,6:8
5,7:8
5,9:20
5,10:7
5,11:5
5,15:20
5,16:8
5,17:11
5,18:5
5,19:11
5,20:1
5,21:18
5,22:1
5,57:14
5,58:14
5,59:14
5,68:20
5,69:7
5,70:8
6,8:15
6,9:28
6,10:15
6,11:13
6,15:28
6,17:3
6,18:13
6,19:3
6,20:7
6,21:10
6,22:7
6,24:8
6,30:8
6,41:8
6,57:22
6,58:22
6,59:22
6,68:28
6,69:15
7,5:8
7,8:15
7,9:28
7,10:15
7,11:13
7,15:28
7,17:3
7,18:13
7,19:3
7,20:7
7,21:10
7,22:7
7,24:8
7,30:8
7,41:8
7,57:22
7,58:22
7,59:22
7,68:28
7,69:15
8,9:13
8,11:2
8,12:18
8,15:13
8,16:15
8,17:18
8,18:2
8,19:18
8,20:8
8,21:25
8,22:8
8,24:7
8,30:7
8,41:7
8,57:7
8,58:7
8,59:7
8,68:13
8,70:15
9,1:20
9,2:20
9,3:20
9,4:20
9,5:20
9,6:28
9,7:28
9,8:13
9,10:13
9,16:28
9,17:31
9,18:15
9,19:31
9,20:21
9,21:38
9,22:21
9,24:20
9,30:20
9,41:20
9,57:6
9,58:6
9,59:6
9,69:13
9,70:28
10,1:7
10,2:7
10,3:7
10,4:7
10,5:7
10,6:15
10,7:15
10,11:2
10,15:13
10,16:15
10,17:18
10,18:2
10,19:18
10,20:8
10,21:25
10,22:8
10,24:7
10,30:7
10,41:7
10,57:7
10,58:7
10,59:7
10,68:13
10,70:15
11,1:5
11,2:5
11,3:5
11,4:5
11,5:5
11,6:13
11,7:13
11,8:2
11,12:16
11,15:15
11,16:13
11,17:16
11,19:16
11,20:6
11,21:23
11,22:6
11,24:5
11,30:5
11,41:5
11,57:9
11,58:9
11,59:9
11,68:15
11,69:2
11,70:13
12,13:10
12,15:31
12,16:3
12,18:16
12,20:10
12,21:7
12,22:10
12,24:11
12,30:11
12,41:11
12,57:25
12,58:25
12,59:25
12,68:31
12,69:18
12,70:3
13,14:10
13,15:21
13,16:7
13,17:10
13,18:6
13,19:10
13,21:17
13,23:17
13,24:1
13,30:1
13,41:1
13,57:15
13,58:15
13,59:15
13,68:21
13,69:8
13,70:7
14,13:10
14,15:31
14,16:3
14,18:16
14,20:10
14,21:7
14,22:10
14,23:7
14,24:11
14,30:11
14,41:11
14,57:25
14,58:25
14,59:25
14,68:31
14,69:18
14,70:3
15,1:20
15,2:20
15,3:20
15,4:20
15,5:20
15,6:28
15,7:28
15,8:13
15,10:13
15,11:15
15,12:31
15,13:21
15,14:31
15,16:28
15,24:20
15,30:20
15,41:20
15,69:13
15,70:28
16,1:8
16,2:8
16,3:8
16,4:8
16,5:8
16,8:15
16,9:28
16,10:15
16,11:13
16,12:3
16,13:7
16,14:3
16,17:3
16,18:13
16,24:8
16,30:8
16,41:8
16,68:28
16,69:15
17,1:11
17,2:11
17,3:11
17,4:11
17,5:11
17,6:3
17,7:3
17,8:18
17,9:31
17,10:18
17,11:16
17,13:10
17,18:16
17,24:11
17,30:11
17,41:11
17,68:31
17,69:18
17,70:3
18,1:5
18,2:5
18,3:5
18,4:5
18,5:5
18,6:13
18,7:13
18,8:2
18,9:15
18,10:2
18,12:16
18,13:6
18,14:16
18,17:16
18,19:16
18,24:5
18,30:5
18,41:5
18,68:15
18,69:2
18,70:13
19,1:11
19,2:11
19,3:11
19,4:11
19,5:11
19,6:3
19,7:3
19,8:18
19,9:31
19,10:18
19,11:16
19,13:10
19,20:10
19,22:10
19,24:11
19,30:11
19,41:11
19,57:25
19,68:31
19,69:18
19,70:3
20,1:1
20,2:1
20,3:1
20,4:1
20,5:1
20,6:7
20,7:7
20,8:8
20,9:21
20,10:8
20,11:6
20,12:10
20,14:10
20,21:17
20,24:1
20,30:1
20,41:1
20,57:15
20,58:15
20,59:15
20,68:21
20,69:8
20,70:7
21,1:18
21,2:18
21,3:18
21,4:18
21,5:18
21,6:10
21,7:10
21,8:25
21,9:38
21,10:25
21,11:23
21,12:7
21,13:17
21,14:7
21,22:17
21,24:18
21,30:18
21,41:18
21,57:32
21,58:32
21,59:32
21,68:38
21,69:25
21,70:10
22,1:1
22,2:1
22,3:1
22,4:1
22,5:1
22,6:7
22,7:7
22,8:8
22,9:21
22,10:8
22,11:6
22,12:10
22,14:10
22,21:17
22,23:17
22,24:1
22,30:1
22,41:1
22,57:15
22,58:15
22,59:15
22,68:21
22,69:8
22,70:7
23,24:18
23,25:29
23,30:18
23,31:29
23,41:18
23,57:32
23,58:32
23,59:32
23,68:38
23,69:25
23,70:10
24,6:8
24,7:8
24,8:7
24,9:20
24,10:7
24,11:5
24,12:11
24,13:1
24,14:11
24,15:20
24,16:8
24,17:11
24,18:5
24,19:11
24,20:1
24,21:18
24,22:1
24,23:18
24,25:11
24,31:11
24,32:11
24,33:18
24,34:8
24,57:14
24,58:14
24,59:14
24,68:20
24,69:7
24,70:8
25,26:19
25,27:19
25,28:19
25,29:19
25,30:11
25,33:29
25,34:19
25,41:11
25,57:3
25,58:3
25,59:3
25,68:9
25,69:4
25,70:19
26,30:8
26,31:19
26,32:19
26,33:10
26,35:15
26,41:8
26,57:22
26,58:22
26,59:22
26,68:28
26,69:15
27,30:8
27,31:19
27,32:19
27,33:10
27,35:15
27,41:8
27,57:22
27,58:22
27,59:22
27,68:28
27,69:15
28,30:8
28,31:19
28,32:19
28,33:10
28,35:15
28,41:8
28,57:22
28,58:22
28,59:22
28,68:28
28,69:15
29,30:8
29,31:19
29,32:19
29,33:10
29,35:15
29,41:8
29,57:22
29,58:22
29,59:22
29,68:28
29,69:15
30,6:8
30,7:8
30,8:7
30,9:20
30,10:7
30,11:5
30,12:11
30,13:1
30,14:11
30,15:20
30,16:8
30,17:11
30,18:5
30,19:11
30,20:1
30,21:18
30,22:1
30,23:18
30,25:11
30,26:8
30,27:8
30,28:8
30,29:8
30,31:11
30,33:18
30,34:8
30,57:14
30,58:14
30,59:14
30,68:20
30,69:7
30,70:8
31,24:11
31,26:19
31,27:19
31,28:19
31,29:19
31,33:29
31,34:19
31,41:11
31,57:3
31,58:3
31,59:3
31,68:9
31,69:4
31,70:19
32,24:11
32,26:19
32,27:19
32,28:19
32,29:19
32,33:29
32,34:19
32,35:34
32,41:11
32,57:3
32,58:3
32,59:3
32,68:9
32,69:4
32,70:19
33,24:18
33,25:29
33,26:10
33,27:10
33,28:10
33,29:10
33,30:18
33,31:29
33,32:29
33,34:10
33,41:18
33,57:32
33,58:32
33,59:32
33,68:38
33,69:25
33,70:10
34,24:8
34,25:19
34,30:8
34,31:19
34,32:19
34,35:15
34,41:8
34,57:22
34,58:22
34,59:22
34,68:28
34,69:15
35,36:28
35,41:23
35,48:28
35,53:20
35,56:37
35,57:37
35,58:37
35,59:37
35,60:37
35,61:37
35,68:43
35,69:30
35,70:15
36,41:5
36,44:28
36,45:28
36,46:28
36,49:9
36,51:28
36,52:8
36,53:8
36,54:28
36,55:28
36,56:9
36,57:9
36,58:9
36,59:9
36,60:9
36,61:9
36,62:28
36,63:8
36,65:31
36,66:31
36,67:31
36,68:15
36,69:2
36,70:13
37,41:5
37,44:28
37,45:28
37,46:28
37,49:9
37,51:28
37,52:8
37,53:8
37,54:28
37,55:28
37,56:9
37,57:9
37,58:9
37,59:9
37,60:9
37,61:9
37,62:28
37,63:8
37,65:31
37,66:31
37,67:31
37,68:15
37,69:2
37,70:13
38,41:5
38,44:28
38,45:28
38,46:28
38,49:9
38,51:28
38,52:8
38,53:8
38,54:28
38,55:28
38,56:9
38,57:9
38,58:9
38,59:9
38,60:9
38,61:9
38,62:28
38,63:8
38,65:31
38,66:31
38,67:31
38,68:15
38,69:2
38,70:13
39,41:5
39,44:28
39,45:28
39,46:28
39,49:9
39,51:28
39,52:8
39,53:8
39,54:28
39,55:28
39,56:9
39,57:9
39,58:9
39,59:9
39,60:9
39,61:9
39,62:28
39,63:8
39,65:31
39,66:31
39,67:31
39,68:15
39,69:2
39,70:13
40,41:5
40,42:31
40,44:28
40,45:28
40,46:28
40,49:9
40,51:28
40,52:8
40,53:8
40,54:28
40,55:28
40,56:9
40,57:9
40,58:9
40,59:9
40,60:9
40,61:9
40,62:28
40,63:8
40,65:31
40,66:31
40,67:31
40,68:15
40,69:2
40,70:13
41,6:8
41,7:8
41,8:7
41,9:20
41,10:7
41,11:5
41,12:11
41,13:1
41,14:11
41,15:20
41,16:8
41,17:11
41,18:5
41,19:11
41,20:1
41,21:18
41,22:1
41,23:18
41,25:11
41,26:8
41,27:8
41,28:8
41,29:8
41,31:11
41,32:11
41,33:18
41,34:8
41,35:23
41,36:5
41,37:5
41,38:5
41,39:5
41,40:5
41,42:26
41,44:23
41,45:23
41,46:23
41,47:5
41,48:5
41,49:14
41,51:23
41,52:3
41,53:3
41,54:23
41,55:23
41,56:14
41,57:14
41,58:14
41,59:14
41,60:14
41,61:14
41,62:23
41,63:3
41,64:5
41,65:26
41,66:26
41,67:26
41,68:20
41,69:7
41,70:8
42,43:3
42,44:3
42,45:3
42,46:3
42,47:31
42,48:31
42,49:40
42,51:3
42,52:23
42,53:23
42,54:3
42,55:3
42,56:40
42,57:40
42,58:40
42,59:40
42,60:40
42,61:40
42,62:3
42,63:23
42,64:31
42,68:46
42,69:33
42,70:18
43,47:28
43,48:28
43,49:37
43,52:20
43,53:20
43,56:37
43,57:37
43,58:37
43,59:37
43,60:37
43,61:37
43,63:20
43,64:28
43,65:3
43,66:3
43,67:3
43,68:43
43,69:30
43,70:15
44,36:28
44,37:28
44,38:28
44,39:28
44,40:28
44,41:23
44,42:3
44,48:28
44,49:37
44,52:20
44,53:20
44,56:37
44,57:37
44,58:37
44,59:37
44,60:37
44,61:37
44,63:20
44,64:28
44,65:3
44,66:3
44,67:3
44,68:43
44,69:30
44,70:15
45,36:28
45,37:28
45,38:28
45,39:28
45,40:28
45,41:23
45,42:3
45,48:28
45,49:37
45,52:20
45,53:20
45,56:37
45,57:37
45,58:37
45,59:37
45,60:37
45,61:37
45,63:20
45,64:28
45,65:3
45,66:3
45,67:3
45,68:43
45,69:30
45,70:15
46,36:28
46,37:28
46,38:28
46,39:28
46,40:28
46,41:23
46,42:3
46,47:28
46,48:28
46,49:37
46,52:20
46,53:20
46,56:37
46,57:37
46,58:37
46,59:37
46,60:37
46,61:37
46,63:20
46,64:28
46,65:3
46,66:3
46,67:3
46,68:43
46,69:30
46,70:15
47,41:5
47,42:31
47,43:28
47,49:9
47,50:28
47,51:28
47,52:8
47,53:8
47,54:28
47,55:28
47,56:9
47,57:9
47,58:9
47,59:9
47,60:9
47,61:9
47,62:28
47,63:8
47,65:31
47,66:31
47,67:31
47,68:15
47,69:2
47,70:13
48,41:5
48,42:31
48,43:28
48,44:28
48,45:28
48,46:28
48,49:9
48,51:28
48,52:8
48,53:8
48,54:28
48,55:28
48,56:9
48,57:9
48,58:9
48,59:9
48,60:9
48,61:9
48,62:28
48,63:8
48,65:31
48,66:31
48,67:31
48,68:15
48,69:2
48,70:13
49,36:9
49,37:9
49,38:9
49,39:9
49,40:9
49,41:14
49,42:40
49,43:37
49,44:37
49,45:37
49,46:37
49,47:9
49,50:37
49,51:37
49,52:17
49,53:17
49,54:37
49,55:37
49,62:37
49,63:17
49,64:9
49,65:40
49,66:40
49,67:40
49,68:6
49,69:7
49,70:22
50,52:20
50,53:20
50,56:37
50,57:37
50,58:37
50,59:37
50,60:37
50,61:37
50,63:20
50,64:28
50,65:3
50,66:3
50,67:3
50,68:43
50,69:30
50,70:15
51,36:28
51,37:28
51,38:28
51,39:28
51,40:28
51,41:23
51,42:3
51,47:28
51,48:28
51,49:37
51,52:20
51,53:20
51,56:37
51,57:37
51,58:37
51,59:37
51,60:37
51,61:37
51,63:20
51,64:28
51,65:3
51,66:3
51,67:3
51,68:43
51,69:30
51,70:15
52,36:8
52,37:8
52,38:8
52,39:8
52,40:8
52,41:3
52,42:23
52,43:20
52,44:20
52,45:20
52,46:20
52,47:8
52,48:8
52,49:17
52,50:20
52,54:20
52,56:17
52,57:17
52,58:17
52,59:17
52,60:17
52,61:17
52,62:20
52,64:8
52,65:23
52,66:23
52,67:23
52,68:23
52,69:10
52,70:5
53,36:8
53,37:8
53,38:8
53,39:8
53,40:8
53,41:3
53,42:23
53,43:20
53,44:20
53,45:20
53,46:20
53,47:8
53,48:8
53,49:17
53,50:20
53,51:20
53,54:20
53,56:17
53,57:17
53,58:17
53,59:17
53,60:17
53,61:17
53,62:20
53,64:8
53,65:23
53,66:23
53,67:23
53,68:23
53,69:10
53,70:5
54,36:28
54,37:28
54,38:28
54,39:28
54,40:28
54,41:23
54,42:3
54,47:28
54,48:28
54,49:37
54,56:37
54,57:37
54,58:37
54,59:37
54,60:37
54,61:37
54,63:20
54,64:28
54,65:3
54,66:3
54,67:3
54,68:43
54,69:30
54,70:15
55,36:28
55,37:28
55,38:28
55,39:28
55,40:28
55,41:23
55,42:3
55,47:28
55,48:28
55,49:37
55,56:37
55,57:37
55,58:37
55,59:37
55,60:37
55,61:37
55,63:20
55,64:28
55,65:3
55,66:3
55,67:3
55,68:43
55,69:30
55,70:15
56,36:9
56,37:9
56,38:9
56,39:9
56,40:9
56,41:14
56,42:40
56,43:37
56,44:37
56,45:37
56,46:37
56,47:9
56,48:9
56,50:37
56,51:37
56,52:17
56,53:17
56,54:37
56,55:37
56,62:37
56,63:17
56,64:9
56,65:40
56,66:40
56,67:40
56,68:6
56,69:7
56,70:22
57,1:14
57,2:14
57,3:14
57,4:14
57,5:14
57,6:22
57,7:22
57,8:7
57,9:6
57,10:7
57,11:9
57,12:25
57,13:15
57,14:25
57,20:15
57,21:32
57,22:15
57,23:32
57,24:14
57,25:3
57,26:22
57,27:22
57,28:22
57,29:22
57,30:14
57,31:3
57,32:3
57,33:32
57,34:22
57,35:37
57,36:9
57,37:9
57,38:9
57,39:9
57,40:9
57,41:14
57,42:40
57,43:37
57,44:37
57,45:37
57,46:37
57,47:9
57,48:9
57,50:37
57,51:37
57,52:17
57,53:17
57,54:37
57,55:37
57,62:37
57,63:17
57,64:9
57,65:40
57,66:40
57,67:40
57,68:6
57,69:7
57,70:22
58,1:14
58,2:14
58,3:14
58,4:14
58,5:14
58,6:22
58,7:22
58,8:7
58,9:6
58,10:7
58,11:9
58,12:25
58,13:15
58,14:25
58,20:15
58,21:32
58,22:15
58,23:32
58,24:14
58,25:3
58,26:22
58,27:22
58,28:22
58,29:22
58,30:14
58,31:3
58,32:3
58,33:32
58,34:22
58,35:37
58,36:9
58,37:9
58,38:9
58,39:9
58,40:9
58,41:14
58,42:40
58,43:37
58,44:37
58,45:37
58,46:37
58,47:9
58,48:9
58,50:37
58,51:37
58,52:17
58,53:17
58,54:37
58,55:37
58,62:37
58,63:17
58,64:9
58,65:40
58,66:40
58,67:40
58,68:6
58,69:7
58,70:22
59,1:14
59,2:14
59,3:14
59,4:14
59,5:14
59,6:22
59,7:22
59,8:7
59,9:6
59,10:7
59,11:9
59,12:25
59,13:15
59,14:25
59,20:15
59,21:32
59,22:15
59,23:32
59,24:14
59,25:3
59,26:22
59,27:22
59,28:22
59,29:22
59,30:14
59,31:3
59,32:3
59,33:32
59,34:22
59,35:37
59,36:9
59,37:9
59,38:9
59,39:9
59,40:9
59,41:14
59,42:40
59,43:37
59,44:37
59,45:37
59,46:37
59,47:9
59,48:9
59,50:37
59,51:37
59,52:17
59,53:17
59,54:37
59,55:37
59,62:37
59,63:17
59,64:9
59,65:40
59,66:40
59,67:40
59,68:6
59,69:7
59,70:22
60,36:9
60,37:9
60,38:9
60,39:9
60,40:9
60,41:14
60,42:40
60,43:37
60,44:37
60,45:37
60,46:37
60,47:9
60,48:9
60,50:37
60,51:37
60,52:17
60,53:17
60,54:37
60,55:37
60,62:37
60,63:17
60,64:9
60,65:40
60,66:40
60,67:40
60,68:6
60,69:7
60,70:22
61,36:9
61,37:9
61,38:9
61,39:9
61,40:9
61,41:14
61,42:40
61,43:37
61,44:37
61,45:37
61,46:37
61,47:9
61,48:9
61,50:37
61,51:37
61,52:17
61,53:17
61,54:37
61,55:37
61,62:37
61,63:17
61,64:9
61,65:40
61,66:40
61,67:40
61,68:6
61,69:7
61,70:22
62,36:28
62,37:28
62,38:28
62,39:28
62,40:28
62,41:23
62,42:3
62,47:28
62,48:28
62,49:37
62,52:20
62,53:20
62,56:37
62,57:37
62,58:37
62,59:37
62,60:37
62,61:37
62,63:20
62,68:43
62,69:30
62,70:15
63,36:8
63,37:8
63,38:8
63,39:8
63,40:8
63,41:3
63,42:23
63,43:20
63,44:20
63,45:20
63,46:20
63,47:8
63,48:8
63,49:17
63,50:20
63,51:20
63,54:20
63,55:20
63,56:17
63,57:17
63,58:17
63,59:17
63,60:17
63,61:17
63,64:8
63,68:23
63,69:10
63,70:5
64,41:5
64,42:31
64,43:28
64,44:28
64,45:28
64,46:28
64,49:9
64,50:28
64,51:28
64,52:8
64,53:8
64,54:28
64,55:28
64,56:9
64,57:9
64,58:9
64,59:9
64,60:9
64,61:9
64,65:31
64,66:31
64,67:31
64,68:15
64,69:2
64,70:13
65,36:31
65,37:31
65,38:31
65,39:31
65,40:31
65,41:26
65,43:3
65,44:3
65,45:3
65,46:3
65,47:31
65,48:31
65,49:40
65,50:3
65,51:3
65,52:23
65,53:23
65,54:3
65,55:3
65,56:40
65,57:40
65,58:40
65,59:40
65,60:40
65,68:46
65,69:33
65,70:18
66,36:31
66,37:31
66,38:31
66,39:31
66,40:31
66,41:26
66,43:3
66,44:3
66,45:3
66,46:3
66,47:31
66,48:31
66,49:40
66,50:3
66,51:3
66,52:23
66,53:23
66,54:3
66,55:3
66,56:40
66,57:40
66,58:40
66,59:40
66,60:40
66,61:40
66,68:46
66,69:33
66,70:18
67,36:31
67,37:31
67,38:31
67,39:31
67,40:31
67,41:26
67,43:3
67,44:3
67,45:3
67,46:3
67,47:31
67,48:31
67,49:40
67,50:3
67,51:3
67,52:23
67,53:23
67,54:3
67,55:3
67,56:40
67,57:40
67,58:40
67,59:40
67,60:40
67,61:40
67,68:46
67,69:33
67,70:18
68,4:20
68,5:20
68,6:28
68,7:28
68,8:13
68,10:13
68,11:15
68,12:31
68,13:21
68,14:31
68,16:28
68,17:31
68,18:15
68,19:31
68,20:21
68,21:38
68,22:21
68,23:38
68,24:20
68,25:9
68,26:28
68,27:28
68,28:28
68,29:28
68,30:20
68,31:9
68,32:9
68,33:38
68,34:28
68,35:43
68,36:15
68,37:15
68,38:15
68,39:15
68,40:15
68,41:20
68,42:46
68,43:43
68,44:43
68,45:43
68,46:43
68,47:15
68,48:15
68,49:6
68,50:43
68,51:43
68,52:23
68,53:23
68,54:43
68,55:43
68,56:6
68,57:6
68,58:6
68,59:6
68,60:6
68,61:6
68,62:43
68,63:23
68,64:15
68,65:46
68,66:46
68,67:46
68,69:13
68,70:28
69,2:7
69,3:7
69,4:7
69,5:7
69,6:15
69,7:15
69,9:13
69,11:2
69,12:18
69,13:8
69,14:18
69,15:13
69,16:15
69,17:18
69,18:2
69,19:18
69,20:8
69,21:25
69,22:8
69,23:25
69,24:7
69,25:4
69,26:15
69,27:15
69,28:15
69,29:15
69,30:7
69,31:4
69,32:4
69,33:25
69,34:15
69,35:30
69,36:2
69,37:2
69,38:2
69,39:2
69,40:2
69,41:7
69,42:33
69,43:30
69,44:30
69,45:30
69,46:30
69,47:2
69,48:2
69,49:7
69,50:30
69,51:30
69,52:10
69,53:10
69,54:30
69,55:30
69,56:7
69,57:7
69,58:7
69,59:7
69,60:7
69,61:7
69,62:30
69,63:10
69,64:2
69,65:33
69,66:33
69,67:33
69,68:13
69,70:15
70,2:8
70,3:8
70,4:8
70,5:8
70,8:15
70,9:28
70,10:15
70,11:13
70,12:3
70,13:7
70,14:3
70,15:28
70,17:3
70,18:13
70,19:3
70,20:7
70,21:10
70,22:7
70,23:10
70,24:8
70,25:19
70,30:8
70,31:19
70,32:19
70,33:10
70,35:15
70,36:13
70,37:13
70,38:13
70,39:13
70,40:13
70,41:8
70,42:18
70,43:15
70,44:15
70,45:15
70,46:15
70,47:13
70,48:13
70,49:22
70,50:15
70,51:15
70,52:5
70,53:5
70,54:15
70,55:15
70,56:22
70,57:22
70,58:22
70,59:22
70,60:22
70,61:22
70,62:15
70,63:5
70,64:13
70,65:18
70,66:18
70,67:18
70,68:28
70,69:15

<setup times backward>
1,16:8
1,17:11
1,19:11
1,20:1
1,21:18
1,22:1
2,16:8
2,17:11
2,19:11
2,20:1
2,21:18
2,22:1
2,70:8
3,16:8
3,17:11
3,19:11
3,20:1
3,21:18
3,22:1
3,70:8
4,16:8
4,17:11
4,19:11
4,20:1
4,21:18
4,22:1
4,70:8
5,7:8
5,16:8
5,17:11
5,19:11
5,20:1
5,21:18
5,22:1
5,70:8
6,17:3
6,19:3
6,21:10
7,17:3
7,19:3
7,21:10
8,1:7
8,2:7
8,3:7
8,4:7
8,5:7
8,6:15
8,7:15
8,11:2
8,16:15
8,17:18
8,18:2
8,19:18
8,20:8
8,21:25
8,22:8
8,24:7
8,30:7
8,41:7
8,70:15
9,1:20
9,2:20
9,3:20
9,4:20
9,5:20
9,6:28
9,7:28
9,8:13
9,16:28
9,17:31
9,18:15
9,19:31
9,20:21
9,21:38
9,22:21
9,24:20
9,30:20
9,41:20
9,57:6
9,58:6
9,59:6
9,69:13
9,70:28
10,1:7
10,2:7
10,3:7
10,4:7
10,5:7
10,6:15
10,7:15
10,16:15
10,17:18
10,18:2
10,19:18
10,20:8
10,21:25
10,22:8
10,24:7
10,30:7
10,41:7
10,70:15
11,1:5
11,2:5
11,3:5
11,4:5
11,5:5
11,6:13
11,7:13
11,16:13
11,17:16
11,19:16
11,20:6
11,21:23
11,22:6
11,24:5
11,30:5
11,41:5
11,70:13
12,21:7
13,6:7
13,7:7
13,12:10
13,14:10
13,16:7
13,17:10
13,19:10
13,21:17
13,70:7
14,21:7
15,1:20
15,2:20
15,3:20
15,4:20
15,5:20
15,6:28
15,7:28
15,8:13
15,10:13
15,11:15
15,12:31
15,13:21
15,14:31
15,24:20
15,30:20
15,41:20
15,69:13
15,70:28
16,12:3
16,14:3
18,1:5
18,2:5
18,3:5
18,4:5
18,5:5
18,6:13
18,7:13
18,12:16
18,13:6
18,14:16
18,16:13
18,17:16
18,24:5
18,30:5
18,41:5
18,70:13
20,6:7
20,7:7
20,12:10
20,14:10
20,16:7
20,17:10
20,19:10
20,70:7
22,6:7
22,7:7
22,12:10
22,14:10
22,16:7
22,17:10
22,19:10
22,21:17
22,70:7
24,6:8
24,7:8
24,12:11
24,13:1
24,14:11
24,16:8
24,17:11
24,19:11
24,20:1
24,21:18
24,22:1
24,23:18
24,33:18
24,34:8
24,70:8
25,1:11
25,2:11
25,3:11
25,4:11
25,5:11
25,6:19
25,7:19
25,8:4
25,10:4
25,11:6
25,12:22
25,13:12
25,14:22
25,16:19
25,17:22
25,18:6
25,19:22
25,20:12
25,21:29
25,22:12
25,23:29
25,24:11
25,30:11
25,33:29
25,34:19
25,41:11
25,69:4
25,70:19
26,12:3
26,14:3
26,17:3
26,19:3
26,21:10
26,23:10
26,33:10
27,12:3
27,14:3
27,17:3
27,19:3
27,21:10
27,23:10
27,33:10
28,12:3
28,14:3
28,17:3
28,19:3
28,21:10
28,23:10
28,33:10
29,12:3
29,14:3
29,17:3
29,19:3
29,21:10
29,23:10
29,33:10
30,6:8
30,7:8
30,12:11
30,13:1
30,14:11
30,16:8
30,17:11
30,19:11
30,20:1
30,21:18
30,22:1
30,23:18
30,26:8
30,27:8
30,28:8
30,29:8
30,33:18
30,34:8
30,70:8
31,1:11
31,2:11
31,3:11
31,4:11
31,5:11
31,6:19
31,7:19
31,8:4
31,10:4
31,11:6
31,12:22
31,13:12
31,14:22
31,16:19
31,17:22
31,18:6
31,19:22
31,20:12
31,21:29
31,22:12
31,23:29
31,24:11
31,26:19
31,27:19
31,28:19
31,29:19
31,30:11
31,33:29
31,34:19
31,41:11
31,69:4
31,70:19
32,1:11
32,2:11
32,3:11
32,4:11
32,5:11
32,6:19
32,7:19
32,8:4
32,10:4
32,11:6
32,12:22
32,13:12
32,14:22
32,16:19
32,17:22
32,18:6
32,19:22
32,20:12
32,21:29
32,22:12
32,23:29
32,24:11
32,26:19
32,27:19
32,28:19
32,29:19
32,30:11
32,33:29
32,34:19
32,41:11
32,69:4
32,70:19
34,12:3
34,14:3
34,17:3
34,19:3
34,21:10
34,23:10
34,33:10
36,1:5
36,2:5
36,3:5
36,4:5
36,5:5
36,6:13
36,7:13
36,12:16
36,13:6
36,14:16
36,16:13
36,17:16
36,19:16
36,20:6
36,21:23
36,22:6
36,23:23
36,24:5
36,26:13
36,27:13
36,28:13
36,29:13
36,30:5
36,33:23
36,34:13
36,35:28
36,41:5
36,44:28
36,45:28
36,46:28
36,51:28
36,52:8
36,53:8
36,54:28
36,55:28
36,62:28
36,63:8
36,65:31
36,66:31
36,67:31
36,70:13
37,1:5
37,2:5
37,3:5
37,4:5
37,5:5
37,6:13
37,7:13
37,12:16
37,13:6
37,14:16
37,16:13
37,17:16
37,19:16
37,20:6
37,21:23
37,22:6
37,23:23
37,24:5
37,26:13
37,27:13
37,28:13
37,29:13
37,30:5
37,33:23
37,34:13
37,35:28
37,41:5
37,44:28
37,45:28
37,46:28
37,51:28
37,52:8
37,53:8
37,54:28
37,55:28
37,62:28
37,63:8
37,65:31
37,66:31
37,67:31
37,70:13
38,1:5
38,2:5
38,3:5
38,4:5
38,5:5
38,6:13
38,7:13
38,12:16
38,13:6
38,14:16
38,16:13
38,17:16
38,19:16
38,20:6
38,21:23
38,22:6
38,23:23
38,24:5
38,26:13
38,27:13
38,28:13
38,29:13
38,30:5
38,33:23
38,34:13
38,35:28
38,41:5
38,44:28
38,45:28
38,46:28
38,51:28
38,52:8
38,53:8
38,54:28
38,55:28
38,62:28
38,63:8
38,65:31
38,66:31
38,67:31
38,70:13
39,1:5
39,2:5
39,3:5
39,4:5
39,5:5
39,6:13
39,7:13
39,12:16
39,13:6
39,14:16
39,16:13
39,17:16
39,19:16
39,20:6
39,21:23
39,22:6
39,23:23
39,24:5
39,26:13
39,27:13
39,28:13
39,29:13
39,30:5
39,33:23
39,34:13
39,35:28
39,41:5
39,44:28
39,45:28
39,46:28
39,51:28
39,52:8
39,53:8
39,54:28
39,55:28
39,62:28
39,63:8
39,65:31
39,66:31
39,67:31
39,70:13
40,1:5
40,2:5
40,3:5
40,4:5
40,5:5
40,6:13
40,7:13
40,12:16
40,13:6
40,14:16
40,16:13
40,17:16
40,19:16
40,20:6
40,21:23
40,22:6
40,23:23
40,24:5
40,26:13
40,27:13
40,28:13
40,29:13
40,30:5
40,33:23
40,34:13
40,35:28
40,41:5
40,44:28
40,45:28
40,46:28
40,51:28
40,52:8
40,53:8
40,54:28
40,55:28
40,62:28
40,63:8
40,65:31
40,66:31
40,67:31
40,70:13
41,6:8
41,7:8
41,12:11
41,13:1
41,14:11
41,16:8
41,17:11
41,19:11
41,20:1
41,21:18
41,22:1
41,23:18
41,26:8
41,27:8
41,28:8
41,29:8
41,33:18
41,34:8
41,35:23
41,44:23
41,45:23
41,46:23
41,51:23
41,52:3
41,53:3
41,54:23
41,55:23
41,62:23
41,63:3
41,65:26
41,66:26
41,67:26
41,70:8
43,42:3
43,65:3
43,66:3
43,67:3
44,42:3
44,65:3
44,66:3
44,67:3
45,42:3
45,65:3
45,66:3
45,67:3
46,42:3
46,65:3
46,66:3
46,67:3
47,1:5
47,2:5
47,3:5
47,4:5
47,5:5
47,6:13
47,7:13
47,12:16
47,13:6
47,14:16
47,16:13
47,17:16
47,19:16
47,20:6
47,21:23
47,22:6
47,23:23
47,24:5
47,26:13
47,27:13
47,28:13
47,29:13
47,30:5
47,33:23
47,34:13
47,35:28
47,41:5
47,42:31
47,43:28
47,44:28
47,45:28
47,46:28
47,51:28
47,52:8
47,53:8
47,54:28
47,55:28
47,62:28
47,63:8
47,65:31
47,66:31
47,67:31
47,70:13
48,1:5
48,2:5
48,3:5
48,4:5
48,5:5
48,6:13
48,7:13
48,12:16
48,13:6
48,14:16
48,16:13
48,17:16
48,19:16
48,20:6
48,21:23
48,22:6
48,23:23
48,24:5
48,26:13
48,27:13
48,28:13
48,29:13
48,30:5
48,33:23
48,34:13
48,35:28
48,41:5
48,42:31
48,43:28
48,44:28
48,45:28
48,46:28
48,51:28
48,52:8
48,53:8
48,54:28
48,55:28
48,62:28
48,63:8
48,65:31
48,66:31
48,67:31
48,70:13
49,1:14
49,2:14
49,3:14
49,4:14
49,5:14
49,6:22
49,7:22
49,8:7
49,10:7
49,11:9
49,12:25
49,13:15
49,14:25
49,16:22
49,17:25
49,18:9
49,19:25
49,20:15
49,21:32
49,22:15
49,23:32
49,24:14
49,25:3
49,26:22
49,27:22
49,28:22
49,29:22
49,30:14
49,31:3
49,32:3
49,33:32
49,34:22
49,35:37
49,36:9
49,37:9
49,38:9
49,39:9
49,40:9
49,41:14
49,42:40
49,43:37
49,44:37
49,45:37
49,46:37
49,47:9
49,48:9
49,51:37
49,52:17
49,53:17
49,54:37
49,55:37
49,62:37
49,63:17
49,64:9
49,65:40
49,66:40
49,67:40
49,69:7
49,70:22
50,42:3
50,65:3
50,66:3
50,67:3
51,42:3
51,65:3
51,66:3
51,67:3
52,6:5
52,7:5
52,12:8
52,14:8
52,16:5
52,17:8
52,19:8
52,21:15
52,23:15
52,26:5
52,27:5
52,28:5
52,29:5
52,33:15
52,34:5
52,35:20
52,42:23
52,43:20
52,44:20
52,45:20
52,46:20
52,50:20
52,51:20
52,62:20
52,65:23
52,66:23
52,67:23
52,70:5
53,6:5
53,7:5
53,12:8
53,14:8
53,16:5
53,17:8
53,19:8
53,21:15
53,23:15
53,26:5
53,27:5
53,28:5
53,29:5
53,33:15
53,34:5
53,35:20
53,42:23
53,43:20
53,44:20
53,45:20
53,46:20
53,50:20
53,51:20
53,62:20
53,65:23
53,66:23
53,67:23
53,70:5
54,42:3
54,65:3
54,66:3
54,67:3
55,42:3
55,65:3
55,66:3
55,67:3
56,1:14
56,2:14
56,3:14
56,4:14
56,5:14
56,6:22
56,7:22
56,8:7
56,10:7
56,11:9
56,12:25
56,13:15
56,14:25
56,16:22
56,17:25
56,18:9
56,19:25
56,20:15
56,21:32
56,22:15
56,23:32
56,24:14
56,25:3
56,26:22
56,27:22
56,28:22
56,29:22
56,30:14
56,31:3
56,32:3
56,33:32
56,34:22
56,35:37
56,36:9
56,37:9
56,38:9
56,39:9
56,40:9
56,41:14
56,42:40
56,43:37
56,44:37
56,45:37
56,46:37
56,47:9
56,48:9
56,50:37
56,51:37
56,52:17
56,53:17
56,54:37
56,55:37
56,62:37
56,63:17
56,64:9
56,65:40
56,66:40
56,67:40
56,69:7
56,70:22
57,1:14
57,2:14
57,3:14
57,4:14
57,5:14
57,6:22
57,7:22
57,8:7
57,10:7
57,11:9
57,12:25
57,13:15
57,14:25
57,16:22
57,17:25
57,18:9
57,19:25
57,20:15
57,21:32
57,22:15
57,23:32
57,24:14
57,25:3
57,26:22
57,27:22
57,28:22
57,29:22
57,30:14
57,31:3
57,32:3
57,33:32
57,34:22
57,35:37
57,36:9
57,37:9
57,38:9
57,39:9
57,40:9
57,41:14
57,42:40
57,43:37
57,44:37
57,45:37
57,46:37
57,47:9
57,48:9
57,50:37
57,51:37
57,52:17
57,53:17
57,54:37
57,55:37
57,62:37
57,63:17
57,64:9
57,65:40
57,66:40
57,67:40
57,69:7
57,70:22
58,1:14
58,2:14
58,3:14
58,4:14
58,5:14
58,6:22
58,7:22
58,8:7
58,10:7
58,11:9
58,12:25
58,13:15
58,14:25
58,16:22
58,17:25
58,18:9
58,19:25
58,20:15
58,21:32
58,22:15
58,23:32
58,24:14
58,25:3
58,26:22
58,27:22
58,28:22
58,29:22
58,30:14
58,31:3
58,32:3
58,33:32
58,34:22
58,35:37
58,36:9
58,37:9
58,38:9
58,39:9
58,40:9
58,41:14
58,42:40
58,43:37
58,44:37
58,45:37
58,46:37
58,47:9
58,48:9
58,50:37
58,51:37
58,52:17
58,53:17
58,54:37
58,55:37
58,62:37
58,63:17
58,64:9
58,65:40
58,66:40
58,67:40
58,69:7
58,70:22
59,1:14
59,2:14
59,3:14
59,4:14
59,5:14
59,6:22
59,7:22
59,8:7
59,10:7
59,11:9
59,12:25
59,13:15
59,14:25
59,16:22
59,17:25
59,18:9
59,19:25
59,20:15
59,21:32
59,22:15
59,23:32
59,24:14
59,25:3
59,26:22
59,27:22
59,28:22
59,29:22
59,30:14
59,31:3
59,32:3
59,33:32
59,34:22
59,35:37
59,36:9
59,37:9
59,38:9
59,39:9
59,40:9
59,41:14
59,42:40
59,43:37
59,44:37
59,45:37
59,46:37
59,47:9
59,48:9
59,50:37
59,51:37
59,52:17
59,53:17
59,54:37
59,55:37
59,62:37
59,63:17
59,64:9
59,65:40
59,66:40
59,67:40
59,69:7
59,70:22
60,1:14
60,2:14
60,3:14
60,4:14
60,5:14
60,6:22
60,7:22
60,8:7
60,10:7
60,11:9
60,12:25
60,13:15
60,14:25
60,16:22
60,17:25
60,18:9
60,19:25
60,20:15
60,21:32
60,22:15
60,23:32
60,24:14
60,25:3
60,26:22
60,27:22
60,28:22
60,29:22
60,30:14
60,31:3
60,32:3
60,33:32
60,34:22
60,35:37
60,36:9
60,37:9
60,38:9
60,39:9
60,40:9
60,41:14
60,42:40
60,43:37
60,44:37
60,45:37
60,46:37
60,47:9
60,48:9
60,50:37
60,51:37
60,52:17
60,53:17
60,54:37
60,55:37
60,62:37
60,63:17
60,64:9
60,65:40
60,66:40
60,67:40
60,69:7
60,70:22
61,1:14
61,2:14
61,3:14
61,4:14
61,5:14
61,6:22
61,7:22
61,8:7
61,10:7
61,11:9
61,12:25
61,13:15
61,14:25
61,16:22
61,17:25
61,18:9
61,19:25
61,20:15
61,21:32
61,22:15
61,23:32
61,24:14
61,25:3
61,26:22
61,27:22
61,28:22
61,29:22
61,30:14
61,31:3
61,32:3
61,33:32
61,34:22
61,35:37
61,36:9
61,37:9
61,38:9
61,39:9
61,40:9
61,41:14
61,42:40
61,43:37
61,44:37
61,45:37
61,46:37
61,47:9
61,48:9
61,50:37
61,51:37
61,52:17
61,53:17
61,54:37
61,55:37
61,62:37
61,63:17
61,64:9
61,66:40
61,67:40
61,69:7
61,70:22
62,42:3
63,6:5
63,7:5
63,12:8
63,14:8
63,16:5
63,17:8
63,19:8
63,21:15
63,23:15
63,26:5
63,27:5
63,28:5
63,29:5
63,33:15
63,34:5
63,35:20
63,42:23
63,43:20
63,44:20
63,45:20
63,46:20
63,50:20
63,51:20
63,54:20
63,55:20
63,62:20
63,70:5
64,1:5
64,2:5
64,3:5
64,4:5
64,5:5
64,6:13
64,7:13
64,12:16
64,13:6
64,14:16
64,16:13
64,17:16
64,19:16
64,20:6
64,21:23
64,22:6
64,23:23
64,24:5
64,26:13
64,27:13
64,28:13
64,29:13
64,30:5
64,33:23
64,34:13
64,35:28
64,41:5
64,42:31
64,43:28
64,44:28
64,45:28
64,46:28
64,50:28
64,51:28
64,52:8
64,53:8
64,54:28
64,55:28
64,62:28
64,63:8
64,70:13
68,1:20
68,2:20
68,3:20
68,4:20
68,5:20
68,6:28
68,7:28
68,8:13
68,10:13
68,11:15
68,12:31
68,13:21
68,14:31
68,16:28
68,17:31
68,18:15
68,19:31
68,20:21
68,21:38
68,22:21
68,23:38
68,24:20
68,25:9
68,26:28
68,27:28
68,28:28
68,29:28
68,30:20
68,31:9
68,32:9
68,33:38
68,34:28
68,35:43
68,36:15
68,37:15
68,38:15
68,39:15
68,40:15
68,41:20
68,42:46
68,43:43
68,44:43
68,45:43
68,46:43
68,47:15
68,48:15
68,49:6
68,50:43
68,51:43
68,52:23
68,53:23
68,54:43
68,55:43
68,56:6
68,57:6
68,58:6
68,59:6
68,60:6
68,61:6
68,62:43
68,63:23
68,64:15
68,65:46
68,66:46
68,67:46
68,69:13
68,70:28
69,1:7
69,2:7
69,3:7
69,4:7
69,5:7
69,6:15
69,7:15
69,11:2
69,12:18
69,13:8
69,14:18
69,16:15
69,17:18
69,18:2
69,19:18
69,20:8
69,21:25
69,22:8
69,23:25
69,24:7
69,26:15
69,27:15
69,28:15
69,29:15
69,30:7
69,33:25
69,34:15
69,35:30
69,36:2
69,37:2
69,38:2
69,39:2
69,40:2
69,41:7
69,42:33
69,43:30
69,44:30
69,45:30
69,46:30
69,47:2
69,48:2
69,50:30
69,51:30
69,52:10
69,53:10
69,54:30
69,55:30
69,62:30
69,63:10
69,64:2
69,65:33
69,66:33
69,67:33
69,70:15
70,12:3
70,14:3
70,17:3
70,19:3
70,21:10
70,23:10
70,33:10
70,35:15
70,42:18
70,43:15
70,44:15
70,45:15
70,46:15
70,50:15
70,51:15
70,54:15
70,55:15
70,62:15
70,65:18
70,66:18
70,67:18

<end>

<optimal SALBP-1 value>
16


<rand seed>
467321153

